*SENSE:Maximize
NAME          MODEL
ROWS
 N  OBJ
 L  C0000000
 L  C0000001
 G  C0000002
 G  C0000003
 G  C0000004
 G  C0000005
 G  C0000006
 G  C0000007
 G  C0000008
 G  C0000009
 G  C0000010
 G  C0000011
 G  C0000012
 G  C0000013
 G  C0000014
 G  C0000015
 G  C0000016
 G  C0000017
 G  C0000018
 G  C0000019
 G  C0000020
 G  C0000021
 G  C0000022
 G  C0000023
 G  C0000024
 G  C0000025
 G  C0000026
 G  C0000027
 G  C0000028
 G  C0000029
 G  C0000030
 G  C0000031
 G  C0000032
 G  C0000033
 G  C0000034
 G  C0000035
 G  C0000036
 G  C0000037
 G  C0000038
 G  C0000039
 G  C0000040
 G  C0000041
 G  C0000042
 G  C0000043
 G  C0000044
 G  C0000045
 G  C0000046
 G  C0000047
 G  C0000048
 G  C0000049
 G  C0000050
 G  C0000051
 G  C0000052
 G  C0000053
 G  C0000054
 G  C0000055
 G  C0000056
 G  C0000057
 G  C0000058
 G  C0000059
 G  C0000060
 G  C0000061
 G  C0000062
 G  C0000063
 G  C0000064
 G  C0000065
 G  C0000066
 G  C0000067
 G  C0000068
 G  C0000069
 G  C0000070
 G  C0000071
 G  C0000072
 G  C0000073
 G  C0000074
 G  C0000075
 G  C0000076
 G  C0000077
 G  C0000078
 G  C0000079
 G  C0000080
 G  C0000081
 G  C0000082
 G  C0000083
 G  C0000084
 G  C0000085
 G  C0000086
 G  C0000087
 G  C0000088
 G  C0000089
 G  C0000090
 G  C0000091
 G  C0000092
 G  C0000093
 G  C0000094
 G  C0000095
 G  C0000096
 G  C0000097
 G  C0000098
 G  C0000099
 G  C0000100
 G  C0000101
 G  C0000102
 G  C0000103
 G  C0000104
 G  C0000105
 G  C0000106
 G  C0000107
 G  C0000108
 G  C0000109
 G  C0000110
 G  C0000111
 G  C0000112
 G  C0000113
 G  C0000114
 G  C0000115
 G  C0000116
 G  C0000117
 G  C0000118
 G  C0000119
 G  C0000120
 G  C0000121
 G  C0000122
 G  C0000123
 G  C0000124
 G  C0000125
 G  C0000126
 G  C0000127
 G  C0000128
 G  C0000129
 G  C0000130
 G  C0000131
 G  C0000132
 G  C0000133
 G  C0000134
 G  C0000135
 G  C0000136
 G  C0000137
 G  C0000138
 G  C0000139
 G  C0000140
 G  C0000141
 G  C0000142
 G  C0000143
 G  C0000144
 G  C0000145
 G  C0000146
 G  C0000147
 G  C0000148
 G  C0000149
 G  C0000150
 G  C0000151
 G  C0000152
 G  C0000153
 G  C0000154
 G  C0000155
 G  C0000156
 G  C0000157
 G  C0000158
 G  C0000159
 G  C0000160
 G  C0000161
 G  C0000162
 G  C0000163
 G  C0000164
 G  C0000165
 G  C0000166
 G  C0000167
 G  C0000168
 G  C0000169
 G  C0000170
 G  C0000171
 G  C0000172
 G  C0000173
 G  C0000174
 G  C0000175
 G  C0000176
 G  C0000177
 G  C0000178
 G  C0000179
 G  C0000180
 G  C0000181
 G  C0000182
 G  C0000183
 G  C0000184
 G  C0000185
 G  C0000186
 G  C0000187
 G  C0000188
 G  C0000189
 G  C0000190
 G  C0000191
 G  C0000192
 G  C0000193
 G  C0000194
 G  C0000195
 G  C0000196
 G  C0000197
 G  C0000198
 G  C0000199
 G  C0000200
 G  C0000201
 G  C0000202
 G  C0000203
 G  C0000204
 G  C0000205
 G  C0000206
 G  C0000207
 G  C0000208
 G  C0000209
 G  C0000210
 G  C0000211
 G  C0000212
 G  C0000213
 G  C0000214
 G  C0000215
 G  C0000216
COLUMNS
    X0000000  C0000000   2.000000000000e+00
    X0000000  C0000001   4.000000000000e+00
    X0000000  C0000002   1.000000000000e+00
    X0000000  OBJ        1.000000000000e+00
    X0000001  C0000000   2.000000000000e+00
    X0000001  C0000001  -5.000000000000e+00
    X0000001  C0000003   1.000000000000e+00
    X0000001  C0000004   1.000000000000e+00
    X0000001  C0000005   1.000000000000e+00
    X0000001  C0000006   1.000000000000e+00
    X0000001  C0000007   1.000000000000e+00
    X0000001  C0000008   1.000000000000e+00
    X0000001  C0000009   1.000000000000e+00
    X0000001  C0000010   1.000000000000e+00
    X0000001  C0000011   1.000000000000e+00
    X0000001  C0000012   1.000000000000e+00
    X0000001  C0000013   1.000000000000e+00
    X0000001  C0000014   1.000000000000e+00
    X0000001  C0000015   1.000000000000e+00
    X0000001  C0000016   1.000000000000e+00
    X0000001  C0000017   1.000000000000e+00
    X0000001  C0000018   1.000000000000e+00
    X0000001  C0000019   1.000000000000e+00
    X0000001  C0000020   1.000000000000e+00
    X0000001  C0000021   1.000000000000e+00
    X0000001  C0000022   1.000000000000e+00
    X0000001  C0000023   1.000000000000e+00
    X0000001  C0000024   1.000000000000e+00
    X0000001  C0000025   1.000000000000e+00
    X0000001  C0000026   1.000000000000e+00
    X0000001  C0000027   1.000000000000e+00
    X0000001  C0000028   1.000000000000e+00
    X0000001  C0000029   1.000000000000e+00
    X0000001  C0000030   1.000000000000e+00
    X0000001  C0000031   1.000000000000e+00
    X0000001  C0000032   1.000000000000e+00
    X0000001  C0000033   1.000000000000e+00
    X0000001  C0000034   1.000000000000e+00
    X0000001  C0000035   1.000000000000e+00
    X0000001  C0000036   1.000000000000e+00
    X0000001  C0000037   1.000000000000e+00
    X0000001  C0000038   1.000000000000e+00
    X0000001  C0000039   1.000000000000e+00
    X0000001  C0000040   1.000000000000e+00
    X0000001  C0000041   1.000000000000e+00
    X0000001  C0000042   1.000000000000e+00
    X0000001  C0000043   1.000000000000e+00
    X0000001  C0000044   1.000000000000e+00
    X0000001  C0000045   1.000000000000e+00
    X0000001  C0000046   1.000000000000e+00
    X0000001  C0000047   1.000000000000e+00
    X0000001  C0000048   1.000000000000e+00
    X0000001  C0000049   1.000000000000e+00
    X0000001  C0000050   1.000000000000e+00
    X0000001  C0000051   1.000000000000e+00
    X0000001  C0000052   1.000000000000e+00
    X0000001  C0000053   1.000000000000e+00
    X0000001  C0000054   1.000000000000e+00
    X0000001  C0000055   1.000000000000e+00
    X0000001  C0000056   1.000000000000e+00
    X0000001  C0000057   1.000000000000e+00
    X0000001  C0000058   1.000000000000e+00
    X0000001  C0000059   1.000000000000e+00
    X0000001  C0000060   1.000000000000e+00
    X0000001  C0000061   1.000000000000e+00
    X0000001  C0000062   1.000000000000e+00
    X0000001  C0000063   1.000000000000e+00
    X0000001  C0000064   1.000000000000e+00
    X0000001  C0000065   1.000000000000e+00
    X0000001  C0000066   1.000000000000e+00
    X0000001  C0000067   1.000000000000e+00
    X0000001  C0000068   1.000000000000e+00
    X0000001  C0000069   1.000000000000e+00
    X0000001  C0000070   1.000000000000e+00
    X0000001  C0000071   1.000000000000e+00
    X0000001  C0000072   1.000000000000e+00
    X0000001  C0000073   1.000000000000e+00
    X0000001  C0000074   1.000000000000e+00
    X0000001  C0000075   1.000000000000e+00
    X0000001  C0000076   1.000000000000e+00
    X0000001  C0000077   1.000000000000e+00
    X0000001  C0000078   1.000000000000e+00
    X0000001  C0000079   1.000000000000e+00
    X0000001  C0000080   1.000000000000e+00
    X0000001  C0000081   1.000000000000e+00
    X0000001  C0000082   1.000000000000e+00
    X0000001  C0000083   1.000000000000e+00
    X0000001  C0000084   1.000000000000e+00
    X0000001  C0000085   1.000000000000e+00
    X0000001  C0000086   1.000000000000e+00
    X0000001  C0000087   1.000000000000e+00
    X0000001  C0000088   1.000000000000e+00
    X0000001  C0000089   1.000000000000e+00
    X0000001  C0000090   1.000000000000e+00
    X0000001  C0000091   1.000000000000e+00
    X0000001  C0000092   1.000000000000e+00
    X0000001  C0000093   1.000000000000e+00
    X0000001  C0000094   1.000000000000e+00
    X0000001  C0000095   1.000000000000e+00
    X0000001  C0000096   1.000000000000e+00
    X0000001  C0000097   1.000000000000e+00
    X0000001  C0000098   1.000000000000e+00
    X0000001  C0000099   1.000000000000e+00
    X0000001  C0000100   1.000000000000e+00
    X0000001  C0000101   1.000000000000e+00
    X0000001  C0000102   1.000000000000e+00
    X0000001  C0000103   1.000000000000e+00
    X0000001  C0000104   1.000000000000e+00
    X0000001  C0000105   1.000000000000e+00
    X0000001  C0000106   1.000000000000e+00
    X0000001  C0000107   1.000000000000e+00
    X0000001  C0000108   1.000000000000e+00
    X0000001  C0000109   1.000000000000e+00
    X0000001  C0000110   1.000000000000e+00
    X0000001  C0000111   1.000000000000e+00
    X0000001  C0000112   1.000000000000e+00
    X0000001  C0000113   1.000000000000e+00
    X0000001  C0000114   1.000000000000e+00
    X0000001  C0000115   1.000000000000e+00
    X0000001  C0000116   1.000000000000e+00
    X0000001  C0000117   1.000000000000e+00
    X0000001  C0000118   1.000000000000e+00
    X0000001  C0000119   1.000000000000e+00
    X0000001  C0000120   1.000000000000e+00
    X0000001  C0000121   1.000000000000e+00
    X0000001  C0000122   1.000000000000e+00
    X0000001  C0000123   1.000000000000e+00
    X0000001  C0000124   1.000000000000e+00
    X0000001  C0000125   1.000000000000e+00
    X0000001  C0000126   1.000000000000e+00
    X0000001  C0000127   1.000000000000e+00
    X0000001  C0000128   1.000000000000e+00
    X0000001  C0000129   1.000000000000e+00
    X0000001  C0000130   1.000000000000e+00
    X0000001  C0000131   1.000000000000e+00
    X0000001  C0000132   1.000000000000e+00
    X0000001  C0000133   1.000000000000e+00
    X0000001  C0000134   1.000000000000e+00
    X0000001  C0000135   1.000000000000e+00
    X0000001  C0000136   1.000000000000e+00
    X0000001  C0000137   1.000000000000e+00
    X0000001  C0000138   1.000000000000e+00
    X0000001  C0000139   1.000000000000e+00
    X0000001  C0000140   1.000000000000e+00
    X0000001  C0000141   1.000000000000e+00
    X0000001  C0000142   1.000000000000e+00
    X0000001  C0000143   1.000000000000e+00
    X0000001  C0000144   1.000000000000e+00
    X0000001  C0000145   1.000000000000e+00
    X0000001  C0000146   1.000000000000e+00
    X0000001  C0000147   1.000000000000e+00
    X0000001  C0000148   1.000000000000e+00
    X0000001  C0000149   1.000000000000e+00
    X0000001  C0000150   1.000000000000e+00
    X0000001  C0000151   1.000000000000e+00
    X0000001  C0000152   1.000000000000e+00
    X0000001  C0000153   1.000000000000e+00
    X0000001  C0000154   1.000000000000e+00
    X0000001  C0000155   1.000000000000e+00
    X0000001  C0000156   1.000000000000e+00
    X0000001  C0000157   1.000000000000e+00
    X0000001  C0000158   1.000000000000e+00
    X0000001  C0000159   1.000000000000e+00
    X0000001  C0000160   1.000000000000e+00
    X0000001  C0000161   1.000000000000e+00
    X0000001  C0000162   1.000000000000e+00
    X0000001  C0000163   1.000000000000e+00
    X0000001  C0000164   1.000000000000e+00
    X0000001  C0000165   1.000000000000e+00
    X0000001  C0000166   1.000000000000e+00
    X0000001  C0000167   1.000000000000e+00
    X0000001  C0000168   1.000000000000e+00
    X0000001  C0000169   1.000000000000e+00
    X0000001  C0000170   1.000000000000e+00
    X0000001  C0000171   1.000000000000e+00
    X0000001  C0000172   1.000000000000e+00
    X0000001  C0000173   1.000000000000e+00
    X0000001  C0000174   1.000000000000e+00
    X0000001  C0000175   1.000000000000e+00
    X0000001  C0000176   1.000000000000e+00
    X0000001  C0000177   1.000000000000e+00
    X0000001  C0000178   1.000000000000e+00
    X0000001  C0000179   1.000000000000e+00
    X0000001  C0000180   1.000000000000e+00
    X0000001  C0000181   1.000000000000e+00
    X0000001  C0000182   1.000000000000e+00
    X0000001  C0000183   1.000000000000e+00
    X0000001  C0000184   1.000000000000e+00
    X0000001  C0000185   1.000000000000e+00
    X0000001  C0000186   1.000000000000e+00
    X0000001  C0000187   1.000000000000e+00
    X0000001  C0000188   1.000000000000e+00
    X0000001  C0000189   1.000000000000e+00
    X0000001  C0000190   1.000000000000e+00
    X0000001  C0000191   1.000000000000e+00
    X0000001  C0000192   1.000000000000e+00
    X0000001  C0000193   1.000000000000e+00
    X0000001  C0000194   1.000000000000e+00
    X0000001  C0000195   1.000000000000e+00
    X0000001  C0000196   1.000000000000e+00
    X0000001  C0000197   1.000000000000e+00
    X0000001  C0000198   1.000000000000e+00
    X0000001  C0000199   1.000000000000e+00
    X0000001  C0000200   1.000000000000e+00
    X0000001  C0000201   1.000000000000e+00
    X0000001  C0000202   1.000000000000e+00
    X0000001  C0000203   1.000000000000e+00
    X0000001  C0000204   1.000000000000e+00
    X0000001  C0000205   1.000000000000e+00
    X0000001  C0000206   1.000000000000e+00
    X0000001  C0000207   1.000000000000e+00
    X0000001  C0000208   1.000000000000e+00
    X0000001  C0000209   1.000000000000e+00
    X0000001  C0000210   1.000000000000e+00
    X0000001  C0000211   1.000000000000e+00
    X0000001  C0000212   1.000000000000e+00
    X0000001  C0000213   1.000000000000e+00
    X0000001  C0000214   1.000000000000e+00
    X0000001  C0000215   1.000000000000e+00
    X0000001  C0000216   1.000000000000e+00
    X0000001  OBJ        2.000000000000e+00
RHS
    RHS       C0000000   7.000000000000e+00
    RHS       C0000001   9.000000000000e+00
    RHS       C0000002   0.000000000000e+00
    RHS       C0000003   0.000000000000e+00
    RHS       C0000004   4.000000000000e+00
    RHS       C0000005   4.000000000000e+00
    RHS       C0000006   4.000000000000e+00
    RHS       C0000007   4.000000000000e+00
    RHS       C0000008   4.000000000000e+00
    RHS       C0000009   4.000000000000e+00
    RHS       C0000010   4.000000000000e+00
    RHS       C0000011   4.000000000000e+00
    RHS       C0000012   4.000000000000e+00
    RHS       C0000013   4.000000000000e+00
    RHS       C0000014   4.000000000000e+00
    RHS       C0000015   4.000000000000e+00
    RHS       C0000016   4.000000000000e+00
    RHS       C0000017   4.000000000000e+00
    RHS       C0000018   4.000000000000e+00
    RHS       C0000019   4.000000000000e+00
    RHS       C0000020   4.000000000000e+00
    RHS       C0000021   4.000000000000e+00
    RHS       C0000022   4.000000000000e+00
    RHS       C0000023   4.000000000000e+00
    RHS       C0000024   4.000000000000e+00
    RHS       C0000025   4.000000000000e+00
    RHS       C0000026   4.000000000000e+00
    RHS       C0000027   4.000000000000e+00
    RHS       C0000028   4.000000000000e+00
    RHS       C0000029   4.000000000000e+00
    RHS       C0000030   4.000000000000e+00
    RHS       C0000031   4.000000000000e+00
    RHS       C0000032   4.000000000000e+00
    RHS       C0000033   4.000000000000e+00
    RHS       C0000034   4.000000000000e+00
    RHS       C0000035   4.000000000000e+00
    RHS       C0000036   4.000000000000e+00
    RHS       C0000037   4.000000000000e+00
    RHS       C0000038   4.000000000000e+00
    RHS       C0000039   4.000000000000e+00
    RHS       C0000040   4.000000000000e+00
    RHS       C0000041   4.000000000000e+00
    RHS       C0000042   4.000000000000e+00
    RHS       C0000043   4.000000000000e+00
    RHS       C0000044   4.000000000000e+00
    RHS       C0000045   4.000000000000e+00
    RHS       C0000046   4.000000000000e+00
    RHS       C0000047   4.000000000000e+00
    RHS       C0000048   4.000000000000e+00
    RHS       C0000049   4.000000000000e+00
    RHS       C0000050   4.000000000000e+00
    RHS       C0000051   4.000000000000e+00
    RHS       C0000052   4.000000000000e+00
    RHS       C0000053   4.000000000000e+00
    RHS       C0000054   4.000000000000e+00
    RHS       C0000055   4.000000000000e+00
    RHS       C0000056   4.000000000000e+00
    RHS       C0000057   4.000000000000e+00
    RHS       C0000058   4.000000000000e+00
    RHS       C0000059   4.000000000000e+00
    RHS       C0000060   4.000000000000e+00
    RHS       C0000061   4.000000000000e+00
    RHS       C0000062   4.000000000000e+00
    RHS       C0000063   4.000000000000e+00
    RHS       C0000064   4.000000000000e+00
    RHS       C0000065   4.000000000000e+00
    RHS       C0000066   4.000000000000e+00
    RHS       C0000067   4.000000000000e+00
    RHS       C0000068   4.000000000000e+00
    RHS       C0000069   4.000000000000e+00
    RHS       C0000070   4.000000000000e+00
    RHS       C0000071   4.000000000000e+00
    RHS       C0000072   4.000000000000e+00
    RHS       C0000073   4.000000000000e+00
    RHS       C0000074   4.000000000000e+00
    RHS       C0000075   4.000000000000e+00
    RHS       C0000076   4.000000000000e+00
    RHS       C0000077   4.000000000000e+00
    RHS       C0000078   4.000000000000e+00
    RHS       C0000079   4.000000000000e+00
    RHS       C0000080   4.000000000000e+00
    RHS       C0000081   4.000000000000e+00
    RHS       C0000082   4.000000000000e+00
    RHS       C0000083   4.000000000000e+00
    RHS       C0000084   4.000000000000e+00
    RHS       C0000085   4.000000000000e+00
    RHS       C0000086   4.000000000000e+00
    RHS       C0000087   4.000000000000e+00
    RHS       C0000088   4.000000000000e+00
    RHS       C0000089   4.000000000000e+00
    RHS       C0000090   4.000000000000e+00
    RHS       C0000091   4.000000000000e+00
    RHS       C0000092   4.000000000000e+00
    RHS       C0000093   4.000000000000e+00
    RHS       C0000094   4.000000000000e+00
    RHS       C0000095   4.000000000000e+00
    RHS       C0000096   4.000000000000e+00
    RHS       C0000097   4.000000000000e+00
    RHS       C0000098   4.000000000000e+00
    RHS       C0000099   4.000000000000e+00
    RHS       C0000100   4.000000000000e+00
    RHS       C0000101   4.000000000000e+00
    RHS       C0000102   4.000000000000e+00
    RHS       C0000103   4.000000000000e+00
    RHS       C0000104   4.000000000000e+00
    RHS       C0000105   4.000000000000e+00
    RHS       C0000106   4.000000000000e+00
    RHS       C0000107   4.000000000000e+00
    RHS       C0000108   4.000000000000e+00
    RHS       C0000109   4.000000000000e+00
    RHS       C0000110   4.000000000000e+00
    RHS       C0000111   4.000000000000e+00
    RHS       C0000112   4.000000000000e+00
    RHS       C0000113   4.000000000000e+00
    RHS       C0000114   4.000000000000e+00
    RHS       C0000115   4.000000000000e+00
    RHS       C0000116   4.000000000000e+00
    RHS       C0000117   4.000000000000e+00
    RHS       C0000118   4.000000000000e+00
    RHS       C0000119   4.000000000000e+00
    RHS       C0000120   4.000000000000e+00
    RHS       C0000121   4.000000000000e+00
    RHS       C0000122   4.000000000000e+00
    RHS       C0000123   4.000000000000e+00
    RHS       C0000124   4.000000000000e+00
    RHS       C0000125   4.000000000000e+00
    RHS       C0000126   4.000000000000e+00
    RHS       C0000127   4.000000000000e+00
    RHS       C0000128   4.000000000000e+00
    RHS       C0000129   4.000000000000e+00
    RHS       C0000130   4.000000000000e+00
    RHS       C0000131   4.000000000000e+00
    RHS       C0000132   4.000000000000e+00
    RHS       C0000133   4.000000000000e+00
    RHS       C0000134   4.000000000000e+00
    RHS       C0000135   4.000000000000e+00
    RHS       C0000136   4.000000000000e+00
    RHS       C0000137   4.000000000000e+00
    RHS       C0000138   4.000000000000e+00
    RHS       C0000139   4.000000000000e+00
    RHS       C0000140   4.000000000000e+00
    RHS       C0000141   4.000000000000e+00
    RHS       C0000142   4.000000000000e+00
    RHS       C0000143   4.000000000000e+00
    RHS       C0000144   4.000000000000e+00
    RHS       C0000145   4.000000000000e+00
    RHS       C0000146   4.000000000000e+00
    RHS       C0000147   4.000000000000e+00
    RHS       C0000148   4.000000000000e+00
    RHS       C0000149   4.000000000000e+00
    RHS       C0000150   4.000000000000e+00
    RHS       C0000151   4.000000000000e+00
    RHS       C0000152   4.000000000000e+00
    RHS       C0000153   4.000000000000e+00
    RHS       C0000154   4.000000000000e+00
    RHS       C0000155   4.000000000000e+00
    RHS       C0000156   4.000000000000e+00
    RHS       C0000157   4.000000000000e+00
    RHS       C0000158   4.000000000000e+00
    RHS       C0000159   4.000000000000e+00
    RHS       C0000160   4.000000000000e+00
    RHS       C0000161   4.000000000000e+00
    RHS       C0000162   4.000000000000e+00
    RHS       C0000163   4.000000000000e+00
    RHS       C0000164   4.000000000000e+00
    RHS       C0000165   4.000000000000e+00
    RHS       C0000166   4.000000000000e+00
    RHS       C0000167   4.000000000000e+00
    RHS       C0000168   4.000000000000e+00
    RHS       C0000169   4.000000000000e+00
    RHS       C0000170   4.000000000000e+00
    RHS       C0000171   4.000000000000e+00
    RHS       C0000172   4.000000000000e+00
    RHS       C0000173   4.000000000000e+00
    RHS       C0000174   4.000000000000e+00
    RHS       C0000175   4.000000000000e+00
    RHS       C0000176   4.000000000000e+00
    RHS       C0000177   4.000000000000e+00
    RHS       C0000178   4.000000000000e+00
    RHS       C0000179   4.000000000000e+00
    RHS       C0000180   4.000000000000e+00
    RHS       C0000181   4.000000000000e+00
    RHS       C0000182   4.000000000000e+00
    RHS       C0000183   4.000000000000e+00
    RHS       C0000184   4.000000000000e+00
    RHS       C0000185   4.000000000000e+00
    RHS       C0000186   4.000000000000e+00
    RHS       C0000187   4.000000000000e+00
    RHS       C0000188   4.000000000000e+00
    RHS       C0000189   4.000000000000e+00
    RHS       C0000190   4.000000000000e+00
    RHS       C0000191   4.000000000000e+00
    RHS       C0000192   4.000000000000e+00
    RHS       C0000193   4.000000000000e+00
    RHS       C0000194   4.000000000000e+00
    RHS       C0000195   4.000000000000e+00
    RHS       C0000196   4.000000000000e+00
    RHS       C0000197   4.000000000000e+00
    RHS       C0000198   4.000000000000e+00
    RHS       C0000199   4.000000000000e+00
    RHS       C0000200   4.000000000000e+00
    RHS       C0000201   4.000000000000e+00
    RHS       C0000202   4.000000000000e+00
    RHS       C0000203   4.000000000000e+00
    RHS       C0000204   4.000000000000e+00
    RHS       C0000205   4.000000000000e+00
    RHS       C0000206   4.000000000000e+00
    RHS       C0000207   4.000000000000e+00
    RHS       C0000208   4.000000000000e+00
    RHS       C0000209   4.000000000000e+00
    RHS       C0000210   4.000000000000e+00
    RHS       C0000211   4.000000000000e+00
    RHS       C0000212   4.000000000000e+00
    RHS       C0000213   4.000000000000e+00
    RHS       C0000214   4.000000000000e+00
    RHS       C0000215   4.000000000000e+00
    RHS       C0000216   4.000000000000e+00
BOUNDS
 FR BND       X0000000
 FR BND       X0000001
ENDATA
